p tw 73 1831
0 1
0 2
0 3
0 4
0 5
0 6
0 7
0 8
0 9
0 10
0 11
0 12
0 19
0 25
0 26
0 27
0 39
0 49
0 54
0 57
0 59
0 60
0 61
0 23
0 31
0 33
0 47
0 50
0 51
0 66
0 14
0 15
0 22
0 40
0 52
0 62
0 68
0 18
0 43
0 53
0 55
0 71
0 36
0 37
0 63
0 65
0 67
1 2
1 3
1 4
1 5
1 6
1 7
1 8
1 9
1 10
1 11
1 12
1 18
1 23
1 24
1 25
1 26
1 27
1 28
1 29
1 30
1 31
1 16
1 38
1 39
1 40
1 41
1 42
1 43
1 44
1 45
1 17
1 22
1 53
1 56
1 57
1 58
1 13
1 15
1 21
1 36
1 37
1 46
1 49
1 59
1 14
1 52
1 62
1 66
1 68
1 19
1 35
1 48
1 63
1 55
1 72
1 60
1 69
2 3
2 4
2 5
2 6
2 7
2 8
2 9
2 10
2 11
2 12
2 19
2 26
2 44
2 45
2 46
2 47
2 48
2 49
2 50
2 51
2 52
2 17
2 22
2 30
2 31
2 53
2 56
2 57
2 58
2 13
2 16
2 25
2 28
2 33
2 40
2 54
2 60
2 65
2 14
2 20
2 23
2 24
2 43
2 62
2 15
2 66
2 69
2 71
3 4
3 5
3 6
3 7
3 8
3 9
3 10
3 11
3 12
3 14
3 19
3 30
3 34
3 36
3 42
3 48
3 52
3 53
3 54
3 55
3 20
3 31
3 32
3 44
3 46
3 50
3 70
3 18
3 27
3 33
3 57
3 60
3 63
3 64
3 67
3 69
3 35
3 38
3 39
3 45
3 49
3 59
4 5
4 6
4 7
4 8
4 9
4 10
4 11
4 12
4 16
4 17
4 21
4 26
4 32
4 33
4 34
4 35
4 36
4 37
4 14
4 19
4 30
4 42
4 48
4 52
4 53
4 54
4 55
4 25
4 27
4 39
4 49
4 57
4 59
4 60
4 61
4 18
4 24
4 31
4 44
4 58
4 64
4 13
4 28
4 40
4 65
4 38
4 45
4 69
4 15
4 50
5 6
5 7
5 8
5 9
5 10
5 11
5 12
5 16
5 17
5 21
5 26
5 32
5 33
5 34
5 35
5 36
5 37
5 18
5 24
5 25
5 31
5 42
5 44
5 52
5 58
5 64
5 19
5 43
5 47
5 53
5 55
5 57
5 71
5 20
5 23
5 30
5 38
5 50
5 51
5 61
5 67
5 15
5 40
5 46
5 48
5 54
5 66
5 72
5 22
5 39
5 41
5 59
5 62
5 63
5 69
5 70
5 49
6 7
6 8
6 9
6 10
6 11
6 12
6 18
6 23
6 24
6 25
6 26
6 27
6 28
6 29
6 30
6 31
6 20
6 32
6 42
6 44
6 46
6 48
6 50
6 70
6 38
6 51
6 55
6 61
6 67
6 15
6 16
6 17
6 34
6 35
6 53
7 8
7 9
7 10
7 11
7 12
7 14
7 25
7 28
7 30
7 32
7 33
7 36
7 38
7 44
7 45
7 52
7 56
7 58
7 59
7 19
7 26
7 27
7 39
7 49
7 54
7 57
7 60
7 61
7 13
7 21
7 37
7 43
7 47
7 62
7 64
7 69
7 70
7 20
7 31
7 42
7 46
7 48
7 50
7 22
7 23
7 55
7 72
7 15
7 16
7 17
7 24
7 34
7 35
7 53
8 9
8 10
8 11
8 12
8 16
8 24
8 29
8 38
8 39
8 40
8 41
8 42
8 43
8 44
8 45
8 19
8 26
8 46
8 47
8 48
8 49
8 50
8 51
8 52
8 18
8 25
8 31
8 33
8 37
8 58
8 64
8 14
8 36
8 61
8 63
8 65
8 66
8 67
8 13
8 15
8 22
8 28
8 53
8 55
8 70
8 20
8 27
8 57
8 60
8 69
8 35
8 23
8 62
8 17
8 71
9 10
9 11
9 12
9 16
9 17
9 21
9 26
9 32
9 33
9 34
9 35
9 36
9 37
9 24
9 29
9 38
9 39
9 40
9 41
9 42
9 43
9 44
9 45
9 22
9 30
9 31
9 53
9 56
9 57
9 58
9 13
9 18
9 25
9 28
9 50
9 61
9 62
9 67
9 14
9 47
9 64
9 69
9 70
10 11
10 12
10 19
10 26
10 44
10 45
10 46
10 47
10 48
10 49
10 50
10 51
10 52
10 23
10 27
10 31
10 33
10 66
10 13
10 17
10 18
10 22
10 25
10 28
10 35
10 53
10 61
10 62
10 67
10 15
10 42
10 55
10 58
10 64
10 70
10 24
10 30
10 41
10 56
10 39
10 63
10 54
10 65
10 69
11 12
11 13
11 14
11 15
11 16
11 17
11 18
11 19
11 20
11 21
11 22
11 23
11 24
11 25
11 26
11 27
11 28
11 29
11 30
11 31
11 32
11 33
11 34
11 35
11 36
11 37
11 39
11 49
11 54
11 57
11 59
11 60
11 61
11 40
11 52
11 62
11 66
11 68
11 42
11 44
11 46
11 48
11 50
11 70
12 16
12 24
12 29
12 38
12 39
12 40
12 41
12 42
12 43
12 44
12 45
12 17
12 22
12 30
12 31
12 53
12 56
12 57
12 58
12 14
12 15
12 23
12 25
12 52
12 62
12 66
12 68
12 20
12 37
12 51
12 61
12 18
12 50
12 55
12 67
12 19
12 47
12 54
12 65
12 69
12 26
12 48
13 14
13 15
13 16
13 17
13 18
13 19
13 20
13 21
13 22
13 23
13 31
13 36
13 37
13 38
13 43
13 46
13 49
13 53
13 58
13 59
13 25
13 26
13 28
13 35
13 50
13 61
13 62
13 67
13 33
13 40
13 44
13 54
13 57
13 60
13 65
13 32
13 47
13 64
13 69
13 70
13 42
13 55
13 66
13 24
13 30
13 41
13 45
13 52
13 56
13 39
13 48
13 63
14 15
14 16
14 17
14 18
14 19
14 20
14 21
14 22
14 23
14 30
14 34
14 36
14 42
14 48
14 52
14 53
14 54
14 55
14 25
14 28
14 32
14 33
14 38
14 44
14 45
14 56
14 58
14 59
14 40
14 62
14 66
14 68
14 37
14 43
14 47
14 61
14 64
14 69
14 70
14 31
14 63
14 65
14 67
14 24
14 26
14 51
15 16
15 17
15 18
15 19
15 20
15 21
15 22
15 23
15 31
15 35
15 41
15 42
15 50
15 62
15 63
15 64
15 65
15 36
15 37
15 38
15 43
15 46
15 49
15 53
15 58
15 59
15 25
15 40
15 52
15 66
15 68
15 44
15 51
15 57
15 61
15 28
15 55
15 70
15 34
15 48
15 54
15 72
15 30
15 47
15 69
15 24
15 71
16 17
16 18
16 19
16 20
16 21
16 22
16 23
16 26
16 32
16 33
16 34
16 35
16 36
16 37
16 24
16 29
16 38
16 39
16 40
16 41
16 42
16 43
16 44
16 45
16 25
16 28
16 31
16 54
16 57
16 60
16 65
16 52
16 59
16 62
16 63
16 64
16 69
16 70
16 72
16 48
16 50
16 53
16 61
17 18
17 19
17 20
17 21
17 22
17 23
17 26
17 32
17 33
17 34
17 35
17 36
17 37
17 30
17 31
17 44
17 53
17 56
17 57
17 58
17 25
17 28
17 50
17 61
17 62
17 67
17 40
17 54
17 60
17 65
17 24
17 41
17 45
17 46
17 52
17 64
17 66
17 38
17 42
17 48
17 49
17 69
17 71
18 19
18 20
18 21
18 22
18 23
18 24
18 25
18 26
18 27
18 28
18 29
18 30
18 31
18 35
18 41
18 42
18 50
18 62
18 63
18 64
18 65
18 36
18 37
18 38
18 43
18 46
18 49
18 53
18 58
18 59
18 61
18 67
18 33
18 44
18 52
18 47
18 55
18 57
18 71
18 60
18 69
18 51
18 39
18 48
19 20
19 21
19 22
19 23
19 26
19 44
19 45
19 46
19 47
19 48
19 49
19 50
19 51
19 52
19 30
19 34
19 36
19 42
19 53
19 54
19 55
19 25
19 27
19 39
19 57
19 59
19 60
19 61
19 31
19 43
19 71
19 37
19 63
19 65
19 66
19 67
19 24
19 28
19 41
19 56
19 64
19 35
19 58
19 38
19 72
19 69
20 21
20 22
20 23
20 31
20 37
20 38
20 44
20 51
20 57
20 61
20 62
20 66
20 32
20 42
20 46
20 48
20 50
20 70
20 27
20 33
20 36
20 60
20 63
20 64
20 67
20 69
20 30
20 55
20 34
20 40
20 54
20 72
20 24
20 26
20 43
21 22
21 23
21 26
21 32
21 33
21 34
21 35
21 36
21 37
21 31
21 38
21 43
21 46
21 49
21 53
21 58
21 59
21 47
21 61
21 62
21 64
21 69
21 70
22 23
22 30
22 31
22 44
22 53
22 56
22 57
22 58
22 25
22 26
22 28
22 35
22 50
22 61
22 62
22 67
22 40
22 52
22 66
22 68
22 42
22 49
22 55
22 64
22 70
22 27
22 38
22 48
22 72
22 39
22 41
22 59
22 63
22 69
22 46
22 71
23 24
23 25
23 26
23 27
23 28
23 29
23 30
23 31
23 33
23 47
23 50
23 51
23 66
23 40
23 52
23 62
23 68
23 38
23 55
23 61
23 67
23 42
23 48
23 72
23 43
23 44
23 46
23 49
23 69
23 71
24 25
24 26
24 27
24 28
24 29
24 30
24 31
24 38
24 39
24 40
24 41
24 42
24 43
24 44
24 45
24 33
24 37
24 52
24 58
24 64
24 46
24 56
24 66
24 48
24 51
24 62
24 34
24 35
24 50
24 53
24 61
25 26
25 27
25 28
25 29
25 30
25 31
25 32
25 33
25 36
25 38
25 44
25 45
25 52
25 56
25 58
25 59
25 39
25 49
25 54
25 57
25 60
25 61
25 35
25 50
25 53
25 62
25 67
25 37
25 42
25 64
25 40
25 65
25 66
25 68
25 43
25 47
25 55
25 71
25 41
25 46
25 69
26 27
26 28
26 29
26 30
26 31
26 32
26 33
26 34
26 35
26 36
26 37
26 44
26 45
26 46
26 47
26 48
26 49
26 50
26 51
26 52
26 39
26 54
26 57
26 59
26 60
26 61
26 66
26 53
26 62
26 67
26 40
26 43
27 28
27 29
27 30
27 31
27 39
27 49
27 54
27 57
27 59
27 60
27 61
27 33
27 47
27 50
27 51
27 66
27 36
27 63
27 64
27 67
27 69
27 38
27 42
27 48
27 55
27 72
28 29
28 30
28 31
28 32
28 33
28 36
28 38
28 44
28 45
28 52
28 56
28 58
28 59
28 35
28 50
28 53
28 61
28 62
28 67
28 40
28 54
28 57
28 60
28 65
28 42
28 49
28 55
28 64
28 66
28 70
28 41
28 46
29 30
29 31
29 38
29 39
29 40
29 41
29 42
29 43
29 44
29 45
30 31
30 34
30 36
30 42
30 48
30 52
30 53
30 54
30 55
30 44
30 56
30 57
30 58
30 32
30 33
30 38
30 45
30 59
30 50
30 51
30 61
30 67
30 41
30 46
30 64
30 66
30 35
30 39
30 49
30 60
30 69
30 47
30 65
31 44
31 53
31 56
31 57
31 58
31 35
31 41
31 42
31 50
31 62
31 63
31 64
31 65
31 36
31 37
31 38
31 43
31 46
31 49
31 59
31 33
31 47
31 51
31 66
31 52
31 40
31 54
31 60
31 55
31 71
31 61
31 67
31 32
31 48
31 70
31 72
32 33
32 34
32 35
32 36
32 37
32 38
32 44
32 45
32 52
32 56
32 58
32 59
32 43
32 47
32 61
32 62
32 64
32 69
32 70
32 42
32 46
32 48
32 50
33 34
33 35
33 36
33 37
33 38
33 44
33 45
33 52
33 56
33 58
33 59
33 47
33 50
33 51
33 66
33 42
33 64
33 40
33 54
33 57
33 60
33 65
33 63
33 67
33 69
34 35
34 36
34 37
34 42
34 48
34 52
34 53
34 54
34 55
34 40
34 46
34 51
34 64
34 66
34 72
34 38
34 50
34 61
35 36
35 37
35 41
35 42
35 50
35 62
35 63
35 64
35 65
35 53
35 61
35 67
35 39
35 44
35 48
35 58
35 38
35 45
35 49
35 57
35 59
35 60
35 69
36 37
36 42
36 48
36 52
36 53
36 54
36 55
36 38
36 44
36 45
36 56
36 58
36 59
36 43
36 46
36 49
36 47
36 61
36 63
36 65
36 66
36 67
36 57
36 60
36 64
36 69
37 38
37 43
37 46
37 49
37 53
37 58
37 59
37 42
37 44
37 52
37 64
37 47
37 61
37 62
37 69
37 70
37 63
37 65
37 66
37 67
37 51
37 57
38 39
38 40
38 41
38 42
38 43
38 44
38 45
38 52
38 56
38 58
38 59
38 46
38 49
38 53
38 51
38 57
38 61
38 62
38 66
38 50
38 55
38 67
38 48
38 72
38 60
38 69
39 40
39 41
39 42
39 43
39 44
39 45
39 49
39 54
39 57
39 59
39 60
39 61
39 48
39 58
39 63
39 69
39 52
39 62
39 64
39 70
39 72
40 41
40 42
40 43
40 44
40 45
40 54
40 57
40 60
40 65
40 52
40 62
40 66
40 68
40 46
40 48
40 51
40 64
40 72
41 42
41 43
41 44
41 45
41 50
41 62
41 63
41 64
41 65
41 46
41 52
41 56
41 66
41 47
41 54
41 58
41 69
41 59
41 70
41 72
42 43
42 44
42 45
42 48
42 52
42 53
42 54
42 55
42 50
42 62
42 63
42 64
42 65
42 58
42 46
42 70
42 49
42 66
42 72
42 57
42 59
42 60
42 69
42 47
42 61
43 44
43 45
43 46
43 49
43 53
43 58
43 59
43 47
43 61
43 62
43 64
43 69
43 70
43 52
43 55
43 57
43 71
43 48
43 51
44 45
44 46
44 47
44 48
44 49
44 50
44 51
44 52
44 53
44 56
44 57
44 58
44 59
44 64
44 54
44 60
44 65
44 61
44 62
44 66
44 70
44 63
44 69
44 71
45 46
45 47
45 48
45 49
45 50
45 51
45 52
45 56
45 58
45 59
45 64
45 66
45 57
45 60
45 69
46 47
46 48
46 49
46 50
46 51
46 52
46 53
46 58
46 59
46 70
46 56
46 64
46 66
46 54
46 72
46 69
46 71
47 48
47 49
47 50
47 51
47 52
47 66
47 61
47 62
47 64
47 69
47 70
47 53
47 55
47 57
47 71
47 63
47 65
47 67
47 54
47 58
48 49
48 50
48 51
48 52
48 53
48 54
48 55
48 70
48 64
48 66
48 72
48 58
48 63
48 62
48 61
49 50
49 51
49 52
49 54
49 57
49 59
49 60
49 61
49 53
49 58
49 55
49 64
49 66
49 70
49 69
49 71
50 51
50 52
50 62
50 63
50 64
50 65
50 66
50 53
50 61
50 67
50 70
50 55
51 52
51 66
51 57
51 61
51 62
51 55
51 67
51 54
51 64
51 72
52 53
52 54
52 55
52 56
52 58
52 59
52 64
52 62
52 66
52 68
52 57
52 71
52 65
52 69
52 63
52 70
52 72
53 54
53 55
53 56
53 57
53 58
53 59
53 61
53 62
53 67
53 71
53 64
53 66
53 70
54 55
54 57
54 59
54 60
54 61
54 65
54 64
54 66
54 72
54 58
54 69
55 57
55 71
55 58
55 64
55 66
55 70
55 61
55 67
55 72
56 57
56 58
56 59
56 64
56 66
57 58
57 59
57 60
57 61
57 65
57 71
57 62
57 66
57 63
57 64
57 67
57 69
58 59
58 64
58 66
58 70
58 63
58 65
58 69
59 60
59 61
59 69
59 62
59 63
59 64
59 70
59 72
60 61
60 65
60 63
60 64
60 67
60 69
61 62
61 67
61 64
61 69
61 70
61 63
61 65
61 66
62 63
62 64
62 65
62 67
62 66
62 68
62 69
62 70
62 72
63 64
63 65
63 66
63 67
63 69
63 70
63 72
64 65
64 69
64 70
64 66
64 67
64 72
65 66
65 67
65 69
66 68
66 67
66 70
66 72
66 69
66 71
67 69
69 70
69 72
69 71
70 72
